Traveling Salesman Problem/TSP_generados/Aleatorio1620391039_13.tsp
NAME: Aleatorio1620391039_13.tsp
COMMENT: Randomly generated scenario
TYPE: TSP
DIMENSION: 13
EDGE_WEIGHT_TYPE: ATT
NODE_COORD_SECTION
1 1.96 34.16
2 5.34 9.61
3 35.18 19.22
4 37.45 19.67
5 27.4 19.44
6 42.68 36.23
7 22.85 45.43
8 11.89 0.9
9 16.41 4.84
10 25.99 25.48
11 45.59 42.17
12 30.22 10.66
13 49.44 41.74
