Traveling Salesman Problem/TSP_generados/Aleatorio1620391039_13.opt.tour
NAME: Aleatorio1620391039_13.opt.tour
COMMENT: Optimal solution for Aleatorio1620391039_13 (162.18981244572737)
TYPE: TOUR
DIMENSION: 13
TOUR_SECTION
1 7 11 13 6 4 3 10 5 12 9 8 2
-1
EOF
